NAME : local_1
TYPE : ATSP
DIMENSION : 4
EDGE_WEIGHT_TYPE : EXPLICIT
EDGE_WEIGHT_FORMAT : FULL_MATRIX
EDGE_WEIGHT_SECTION
0 1127 10000000 10000000 
0 0 645 546 
0 645 0 139 
0 10000000 10000000 0 
EOF